Mack/Bortfeldt(2008)
Bin-Packing-Problem
BP-RG/SBSBPP/SSSCSP
Testcase-ID	5
Problem-ID	51
no_item_types	15
no_items	1802
CONTAINER_DATA (l,w,h)	459	105	93
ITEMS_DATA:
Type	x	y	z	no_items
1	120	99	73	120
2	92	81	55	113
3	97	67	62	127
4	111	70	48	122
5	94	81	44	124
6	98	72	46	113
7	108	76	30	107
8	85	84	30	117
9	95	66	31	135
10	110	43	25	122
11	81	33	28	130
12	95	27	26	109
13	71	32	25	110
14	36	34	25	126
15	33	25	23	127
